words_train/words_498_SAT.qaiger
aag 67 24 0 1 43
2
38
24
32
8
26
30
4
28
14
34
20
6
42
46
36
10
44
22
48
12
18
40
16
134
50 12 10
52 50 14
54 51 15
56 55 53
58 57 47
60 42 11
62 41 9
64 39 7
66 36 4
68 37 5
70 69 2
72 70 34
74 73 67
76 75 65
78 40 8
80 38 6
82 81 79
84 82 77
86 85 63
88 87 61
90 43 10
92 13 11
94 93 51
96 95 45
98 97 91
100 98 89
102 56 46
104 94 44
106 105 103
108 106 101
110 109 59
112 48 19
114 49 18
116 115 113
118 52 16
120 53 17
122 121 119
124 123 116
126 122 117
128 127 125
130 129 111
132 128 110
134 133 131
i0 2 y[0]
i1 2 z[2]
i2 1 x[3]
i3 1 x[7]
i4 2 y[3]
i5 1 x[4]
i6 1 x[6]
i7 2 y[1]
i8 1 x[5]
i9 2 y[6]
i10 2 z[0]
i11 1 x[1]
i12 2 y[2]
i13 2 z[4]
i14 2 z[6]
i15 2 z[1]
i16 2 y[4]
i17 2 z[5]
i18 1 x[2]
i19 2 z[7]
i20 2 y[5]
i21 1 x[0]
i22 2 z[3]
i23 2 y[7]
o0 bv[0]
c
simplified
  <
    add
      << 4
        1
      2 y
    subtract
      << 7
        1 x
      2 z
