words_train/words_498_SAT.qaiger.qdimacs
p cnf 67 130
a 9 10 11 12 13 14 15 16 0
e 1 2 3 4 5 6 7 8 17 18 19 20 21 22 23 24 25 26 27 28 29 30 31 32 33 34 35 36 37 38 39 40 41 42 43 44 45 46 47 48 49 50 51 52 53 54 55 56 57 58 59 60 61 62 63 64 65 66 67 0
-6 -5 25 0
6 -25 0
5 -25 0
-25 -7 26 0
25 -26 0
7 -26 0
25 7 27 0
-25 -27 0
-7 -27 0
27 26 28 0
-27 -28 0
-26 -28 0
28 23 29 0
-28 -29 0
-23 -29 0
-21 5 30 0
21 -30 0
-5 -30 0
20 4 31 0
-20 -31 0
-4 -31 0
19 3 32 0
-19 -32 0
-3 -32 0
-18 -2 33 0
18 -33 0
2 -33 0
18 2 34 0
-18 -34 0
-2 -34 0
34 -1 35 0
-34 -35 0
1 -35 0
-35 -17 36 0
35 -36 0
17 -36 0
36 33 37 0
-36 -37 0
-33 -37 0
37 32 38 0
-37 -38 0
-32 -38 0
-20 -4 39 0
20 -39 0
4 -39 0
-19 -3 40 0
19 -40 0
3 -40 0
40 39 41 0
-40 -41 0
-39 -41 0
-41 38 42 0
41 -42 0
-38 -42 0
42 31 43 0
-42 -43 0
-31 -43 0
43 30 44 0
-43 -44 0
-30 -44 0
21 -5 45 0
-21 -45 0
5 -45 0
6 5 46 0
-6 -46 0
-5 -46 0
46 25 47 0
-46 -47 0
-25 -47 0
47 22 48 0
-47 -48 0
-22 -48 0
48 45 49 0
-48 -49 0
-45 -49 0
-49 44 50 0
49 -50 0
-44 -50 0
-28 -23 51 0
28 -51 0
23 -51 0
-47 -22 52 0
47 -52 0
22 -52 0
52 51 53 0
-52 -53 0
-51 -53 0
-53 50 54 0
53 -54 0
-50 -54 0
54 29 55 0
-54 -55 0
-29 -55 0
-24 9 56 0
24 -56 0
-9 -56 0
24 -9 57 0
-24 -57 0
9 -57 0
57 56 58 0
-57 -58 0
-56 -58 0
-26 -8 59 0
26 -59 0
8 -59 0
26 8 60 0
-26 -60 0
-8 -60 0
60 59 61 0
-60 -61 0
-59 -61 0
61 -58 62 0
-61 -62 0
58 -62 0
-61 58 63 0
61 -63 0
-58 -63 0
63 62 64 0
-63 -64 0
-62 -64 0
64 55 65 0
-64 -65 0
-55 -65 0
-64 -55 66 0
64 -66 0
55 -66 0
66 65 67 0
-66 -67 0
-65 -67 0
67 0
